Route #1: 1 22 33 43 38 12 27 11 34 25 16 1
Route #2: 1 3 23 37 10 39 42 15 14 1
Route #3: 1 32 9 29 28 20 1
Route #4: 1 26 7 4 13 18 40 35 1
Route #5: 1 5 17 21 19 36 2 41 1
Route #6: 1 8 6 44 30 24 31 1
cost 1080.0796226922434